[runlim] version:		1.10
[runlim] time limit:		311040000 seconds
[runlim] real time limit:	600 seconds
[runlim] space limit:		14000 MB
[runlim] argv[0]:		python3
[runlim] argv[1]:		-u
[runlim] argv[2]:		mip.py
[runlim] argv[3]:		TUD916.1
[runlim] start:			Sat Jan 24 19:57:34 2026
[runlim] main pid:		67287
Building MIP model...
[runlim] sample:		10.0 time, 10.3 real, 38.3 MB
[runlim] sample:		20.0 time, 20.3 real, 40.7 MB
[runlim] sample:		30.0 time, 30.3 real, 42.4 MB
[runlim] sample:		40.0 time, 40.3 real, 43.1 MB
[runlim] sample:		50.0 time, 50.3 real, 46.7 MB
[runlim] sample:		59.9 time, 60.3 real, 47.7 MB
[runlim] sample:		69.9 time, 70.3 real, 47.8 MB
[runlim] sample:		79.9 time, 80.3 real, 49.2 MB
[runlim] sample:		89.9 time, 90.3 real, 49.3 MB
[runlim] sample:		99.9 time, 100.3 real, 50.8 MB
[runlim] sample:		109.9 time, 110.3 real, 51.2 MB
[runlim] sample:		119.9 time, 120.3 real, 51.2 MB
[runlim] sample:		129.9 time, 130.3 real, 55.8 MB
[runlim] sample:		139.9 time, 140.3 real, 55.9 MB
[runlim] sample:		149.9 time, 150.3 real, 56.2 MB
[runlim] sample:		159.9 time, 160.3 real, 56.4 MB
[runlim] sample:		169.9 time, 170.3 real, 58.8 MB
[runlim] sample:		179.9 time, 180.3 real, 59.2 MB
[runlim] sample:		189.9 time, 190.3 real, 59.4 MB
[runlim] sample:		199.8 time, 200.3 real, 59.7 MB
[runlim] sample:		209.8 time, 210.3 real, 59.8 MB
[runlim] sample:		219.8 time, 220.3 real, 59.1 MB
[runlim] sample:		229.8 time, 230.3 real, 59.7 MB
[runlim] sample:		239.8 time, 240.3 real, 59.9 MB
[runlim] sample:		249.8 time, 250.3 real, 60.2 MB
[runlim] sample:		259.8 time, 260.3 real, 60.3 MB
[runlim] sample:		269.8 time, 270.3 real, 60.3 MB
[runlim] sample:		279.8 time, 280.3 real, 62.9 MB
[runlim] sample:		289.8 time, 290.3 real, 66.3 MB
[runlim] sample:		299.8 time, 300.3 real, 66.9 MB
[runlim] sample:		309.8 time, 310.3 real, 67.4 MB
[runlim] sample:		319.8 time, 320.3 real, 67.7 MB
[runlim] sample:		329.8 time, 330.3 real, 67.9 MB
[runlim] sample:		339.7 time, 340.3 real, 68.1 MB
[runlim] sample:		349.7 time, 350.3 real, 68.2 MB
[runlim] sample:		359.7 time, 360.3 real, 68.3 MB
[runlim] sample:		369.7 time, 370.3 real, 68.4 MB
Build time: 378.74s
Solving MIP (minimizing number of labels)...
Version identifier: 22.1.1.0 | 2022-11-28 | 9160aff4d
CPXPARAM_Read_DataCheck                          1
Legacy callback                                  i
[runlim] sample:		379.7 time, 380.3 real, 218.6 MB
Tried aggregator 2 times.
MIP Presolve eliminated 698119 rows and 172 columns.
MIP Presolve modified 62436 coefficients.
Aggregator did 16809 substitutions.
Reduced MIP has 52129 rows, 16685 columns, and 634016 nonzeros.
Reduced MIP has 16685 binaries, 0 generals, 0 SOSs, and 0 indicators.
Presolve time = 3.67 sec. (4366.47 ticks)
Probing fixed 134 vars, tightened 0 bounds.
Probing changed sense of 17 constraints.
Probing time = 0.06 sec. (21.38 ticks)
Tried aggregator 1 time.
Detecting symmetries...
MIP Presolve eliminated 19 rows and 139 columns.
MIP Presolve modified 3680 coefficients.
Reduced MIP has 51800 rows, 16546 columns, and 620646 nonzeros.
Reduced MIP has 16546 binaries, 0 generals, 0 SOSs, and 0 indicators.
Presolve time = 0.75 sec. (764.83 ticks)
Probing fixed 11 vars, tightened 0 bounds.
Probing time = 0.07 sec. (21.29 ticks)
Clique table members: 68657.
MIP emphasis: balance optimality and feasibility.
MIP search method: dynamic search.
Parallel mode: deterministic, using up to 12 threads.
[runlim] sample:		416.5 time, 390.3 real, 667.0 MB
[runlim] sample:		482.1 time, 400.3 real, 1443.0 MB
[runlim] sample:		581.0 time, 410.3 real, 1443.0 MB
[runlim] sample:		680.2 time, 420.3 real, 1443.0 MB
[runlim] sample:		778.6 time, 430.3 real, 1443.0 MB
[runlim] sample:		877.6 time, 440.3 real, 1443.0 MB
[runlim] sample:		959.9 time, 450.3 real, 750.8 MB
Root relaxation solution time = 70.47 sec. (20616.32 ticks)

        Nodes                                         Cuts/
   Node  Left     Objective  IInf  Best Integer    Best Bound    ItCnt     Gap

*     0+    0                           48.0000        0.0000           100.00%
*     0+    0                           46.0000        0.0000           100.00%
*     0+    0                           44.0000        0.0000           100.00%
      0     0       18.0000  1440       44.0000       18.0000    28023   59.09%

========== NEW INCUMBENT SOLUTION ==========
{1: 736, 2: 498, 3: 540, 4: 778, 5: 380, 6: 142, 7: 708, 8: 470, 9: 380, 10: 142, 11: 708, 12: 470, 13: 142, 14: 380, 15: 708, 16: 470, 17: 142, 18: 380, 19: 170, 20: 408, 21: 142, 22: 380, 23: 100, 24: 338, 25: 142, 26: 380, 27: 708, 28: 470, 29: 380, 30: 142, 31: 778, 32: 540, 33: 170, 34: 408, 35: 338, 36: 100, 37: 470, 38: 708, 39: 86, 40: 324, 41: 470, 42: 708, 43: 16, 44: 254, 45: 792, 46: 554, 47: 338, 48: 100, 49: 30, 50: 268, 51: 498, 52: 736, 53: 44, 54: 282, 55: 254, 56: 16, 57: 380, 58: 142, 59: 268, 60: 30, 61: 254, 62: 16, 63: 240, 64: 478, 65: 478, 66: 240, 67: 708, 68: 470, 69: 778, 70: 540, 71: 666, 72: 428, 73: 114, 74: 352, 75: 142, 76: 380, 77: 554, 78: 792, 79: 100, 80: 338, 81: 708, 82: 470, 83: 680, 84: 442, 85: 268, 86: 30, 87: 708, 88: 470, 89: 142, 90: 380, 91: 380, 92: 142, 93: 554, 94: 792, 95: 470, 96: 708, 97: 114, 98: 352, 99: 254, 100: 16, 101: 100, 102: 338, 103: 86, 104: 324, 105: 72, 106: 310, 107: 708, 108: 470, 109: 114, 110: 352, 111: 478, 112: 240, 113: 778, 114: 540, 115: 778, 116: 540, 117: 736, 118: 498, 119: 478, 120: 240, 121: 408, 122: 170, 123: 708, 124: 470, 125: 338, 126: 100, 127: 708, 128: 470, 129: 240, 130: 478, 131: 554, 132: 792, 133: 470, 134: 708, 135: 142, 136: 380, 137: 708, 138: 470, 139: 30, 140: 268, 141: 240, 142: 478, 143: 100, 144: 338, 145: 470, 146: 708, 147: 142, 148: 380, 149: 30, 150: 268, 151: 16, 152: 254, 153: 736, 154: 498, 155: 708, 156: 470, 157: 470, 158: 708, 159: 44, 160: 282, 161: 338, 162: 100, 163: 16, 164: 254, 165: 708, 166: 470, 167: 470, 168: 708, 169: 708, 170: 470, 171: 366, 172: 128, 173: 380, 174: 142, 175: 338, 176: 100, 177: 554, 178: 792, 179: 254, 180: 16, 181: 142, 182: 380, 183: 268, 184: 30, 185: 240, 186: 478, 187: 72, 188: 310, 189: 254, 190: 16, 191: 554, 192: 792, 193: 708, 194: 470, 195: 170, 196: 408, 197: 366, 198: 128, 199: 380, 200: 142, 201: 554, 202: 792, 203: 792, 204: 554, 205: 142, 206: 380, 207: 142, 208: 380, 209: 778, 210: 540, 211: 380, 212: 142, 213: 100, 214: 338, 215: 114, 216: 352, 217: 16, 218: 254, 219: 652, 220: 414, 221: 470, 222: 708, 223: 380, 224: 142, 225: 470, 226: 708, 227: 694, 228: 456, 229: 86, 230: 324, 231: 100, 232: 338, 233: 30, 234: 268, 235: 428, 236: 666, 237: 100, 238: 338, 239: 652, 240: 414, 241: 380, 242: 142, 243: 540, 244: 778, 245: 708, 246: 470, 247: 240, 248: 478, 249: 470, 250: 708, 251: 540, 252: 778, 253: 240, 254: 478, 255: 16, 256: 254, 257: 30, 258: 268, 259: 30, 260: 268, 261: 296, 262: 58, 263: 30, 264: 268, 265: 240, 266: 478, 267: 792, 268: 554, 269: 142, 270: 380, 271: 30, 272: 268, 273: 170, 274: 408, 275: 540, 276: 778, 277: 30, 278: 268, 279: 338, 280: 100, 281: 554, 282: 792, 283: 540, 284: 778, 285: 142, 286: 380, 287: 408, 288: 170, 289: 456, 290: 694, 291: 470, 292: 708, 293: 142, 294: 380, 295: 142, 296: 380, 297: 708, 298: 470, 299: 16, 300: 254, 301: 792, 302: 554, 303: 778, 304: 540, 305: 470, 306: 708, 307: 554, 308: 792, 309: 16, 310: 254, 311: 324, 312: 86, 313: 142, 314: 380, 315: 478, 316: 240, 317: 554, 318: 792, 319: 408, 320: 170, 321: 16, 322: 254, 323: 470, 324: 708, 325: 282, 326: 44, 327: 142, 328: 380, 329: 86, 330: 324, 331: 652, 332: 414, 333: 478, 334: 240, 335: 792, 336: 554, 337: 352, 338: 114, 339: 540, 340: 778, 341: 666, 342: 428, 343: 380, 344: 142, 345: 540, 346: 778, 347: 100, 348: 338, 349: 338, 350: 100, 351: 708, 352: 470, 353: 240, 354: 478, 355: 100, 356: 338, 357: 792, 358: 554, 359: 456, 360: 694, 361: 30, 362: 268, 363: 708, 364: 470, 365: 512, 366: 750, 367: 680, 368: 442, 369: 254, 370: 16, 371: 142, 372: 380, 373: 268, 374: 30, 375: 114, 376: 352, 377: 540, 378: 778, 379: 554, 380: 792, 381: 380, 382: 142, 383: 380, 384: 142, 385: 470, 386: 708, 387: 380, 388: 142, 389: 44, 390: 282, 391: 708, 392: 470, 393: 142, 394: 380, 395: 792, 396: 554, 397: 792, 398: 554, 399: 408, 400: 170, 401: 58, 402: 296, 403: 540, 404: 778, 405: 380, 406: 142, 407: 554, 408: 792, 409: 352, 410: 114, 411: 540, 412: 778, 413: 16, 414: 254, 415: 470, 416: 708, 417: 380, 418: 142, 419: 736, 420: 498, 421: 142, 422: 380, 423: 470, 424: 708, 425: 708, 426: 470, 427: 72, 428: 310, 429: 114, 430: 352, 431: 30, 432: 268, 433: 338, 434: 100, 435: 792, 436: 554, 437: 708, 438: 470, 439: 380, 440: 142, 441: 170, 442: 408, 443: 470, 444: 708, 445: 380, 446: 142, 447: 170, 448: 408, 449: 792, 450: 554, 451: 666, 452: 428, 453: 408, 454: 170, 455: 380, 456: 142, 457: 778, 458: 540, 459: 380, 460: 142, 461: 470, 462: 708, 463: 282, 464: 44, 465: 708, 466: 470, 467: 338, 468: 100, 469: 142, 470: 380, 471: 708, 472: 470, 473: 142, 474: 380, 475: 268, 476: 30, 477: 58, 478: 296, 479: 296, 480: 58, 481: 540, 482: 778, 483: 114, 484: 352, 485: 142, 486: 380, 487: 750, 488: 512, 489: 170, 490: 408, 491: 142, 492: 380, 493: 380, 494: 142, 495: 44, 496: 282, 497: 338, 498: 100, 499: 778, 500: 540, 501: 736, 502: 498, 503: 680, 504: 442, 505: 792, 506: 554, 507: 708, 508: 470, 509: 540, 510: 778, 511: 708, 512: 470, 513: 554, 514: 792, 515: 380, 516: 142, 517: 142, 518: 380, 519: 478, 520: 240, 521: 352, 522: 114, 523: 142, 524: 380, 525: 408, 526: 170, 527: 254, 528: 16, 529: 170, 530: 408, 531: 170, 532: 408, 533: 666, 534: 428, 535: 470, 536: 708, 537: 170, 538: 408, 539: 114, 540: 352, 541: 338, 542: 100, 543: 86, 544: 324, 545: 338, 546: 100, 547: 708, 548: 470, 549: 554, 550: 792, 551: 380, 552: 142, 553: 750, 554: 512, 555: 478, 556: 240, 557: 44, 558: 282, 559: 736, 560: 498, 561: 470, 562: 708, 563: 58, 564: 296, 565: 338, 566: 100, 567: 470, 568: 708, 569: 470, 570: 708, 571: 554, 572: 792, 573: 240, 574: 478, 575: 408, 576: 170, 577: 338, 578: 100, 579: 128, 580: 366, 581: 470, 582: 708, 583: 414, 584: 652, 585: 470, 586: 708, 587: 792, 588: 554, 589: 58, 590: 296, 591: 554, 592: 792, 593: 142, 594: 380, 595: 470, 596: 708, 597: 408, 598: 170, 599: 114, 600: 352, 601: 30, 602: 268, 603: 366, 604: 128, 605: 268, 606: 30, 607: 380, 608: 142, 609: 142, 610: 380, 611: 58, 612: 296, 613: 240, 614: 478, 615: 708, 616: 470, 617: 554, 618: 792, 619: 16, 620: 254, 621: 100, 622: 338, 623: 778, 624: 540, 625: 498, 626: 736, 627: 792, 628: 554, 629: 652, 630: 414, 631: 338, 632: 100, 633: 540, 634: 778, 635: 470, 636: 708, 637: 30, 638: 268, 639: 324, 640: 86, 641: 652, 642: 414, 643: 100, 644: 338, 645: 142, 646: 380, 647: 100, 648: 338, 649: 254, 650: 16, 651: 268, 652: 30, 653: 652, 654: 414, 655: 442, 656: 680, 657: 16, 658: 254, 659: 554, 660: 792, 661: 44, 662: 282, 663: 456, 664: 694, 665: 100, 666: 338, 667: 380, 668: 142, 669: 114, 670: 352, 671: 792, 672: 554, 673: 478, 674: 240, 675: 554, 676: 792, 677: 100, 678: 338, 679: 142, 680: 380, 681: 708, 682: 470, 683: 792, 684: 554, 685: 708, 686: 470, 687: 100, 688: 338, 689: 268, 690: 30, 691: 44, 692: 282, 693: 708, 694: 470, 695: 736, 696: 498, 697: 156, 698: 394, 699: 792, 700: 554, 701: 44, 702: 282, 703: 778, 704: 540, 705: 58, 706: 296, 707: 778, 708: 540, 709: 540, 710: 778, 711: 750, 712: 512, 713: 100, 714: 338, 715: 72, 716: 310, 717: 708, 718: 470, 719: 540, 720: 778, 721: 72, 722: 310, 723: 86, 724: 324, 725: 708, 726: 470, 727: 114, 728: 352, 729: 554, 730: 792, 731: 366, 732: 128, 733: 128, 734: 366, 735: 540, 736: 778, 737: 736, 738: 498, 739: 16, 740: 254, 741: 680, 742: 442, 743: 470, 744: 708, 745: 16, 746: 254, 747: 156, 748: 394, 749: 338, 750: 100, 751: 540, 752: 778, 753: 100, 754: 338, 755: 324, 756: 86, 757: 100, 758: 338, 759: 498, 760: 736, 761: 470, 762: 708, 763: 554, 764: 792, 765: 540, 766: 778, 767: 540, 768: 778, 769: 16, 770: 254, 771: 30, 772: 268, 773: 778, 774: 540, 775: 86, 776: 324, 777: 338, 778: 100, 779: 58, 780: 296, 781: 282, 782: 44, 783: 666, 784: 428, 785: 254, 786: 16, 787: 470, 788: 708, 789: 30, 790: 268, 791: 694, 792: 456, 793: 778, 794: 540, 795: 750, 796: 512, 797: 652, 798: 414, 799: 736, 800: 498, 801: 268, 802: 30, 803: 498, 804: 736, 805: 792, 806: 554, 807: 708, 808: 470, 809: 58, 810: 296, 811: 792, 812: 554, 813: 128, 814: 366, 815: 792, 816: 554, 817: 512, 818: 750, 819: 540, 820: 778, 821: 338, 822: 100, 823: 16, 824: 254, 825: 470, 826: 708, 827: 254, 828: 16, 829: 16, 830: 254, 831: 30, 832: 268, 833: 86, 834: 324, 835: 114, 836: 352, 837: 652, 838: 414, 839: 16, 840: 254, 841: 366, 842: 128, 843: 100, 844: 338, 845: 750, 846: 512, 847: 792, 848: 554, 849: 666, 850: 428, 851: 16, 852: 254, 853: 792, 854: 554, 855: 44, 856: 282, 857: 86, 858: 324, 859: 736, 860: 498, 861: 792, 862: 554, 863: 792, 864: 554, 865: 156, 866: 394, 867: 652, 868: 414, 869: 554, 870: 792, 871: 456, 872: 694, 873: 30, 874: 268, 875: 254, 876: 16, 877: 708, 878: 470, 879: 142, 880: 380, 881: 16, 882: 254, 883: 666, 884: 428, 885: 352, 886: 114, 887: 156, 888: 394, 889: 792, 890: 554, 891: 86, 892: 324, 893: 652, 894: 414, 895: 30, 896: 268, 897: 100, 898: 338, 899: 72, 900: 310, 901: 554, 902: 792, 903: 554, 904: 792, 905: 498, 906: 736, 907: 792, 908: 554, 909: 100, 910: 338, 911: 268, 912: 30, 913: 428, 914: 666, 915: 652, 916: 414}
Number of labels used: 44
Total time: 455.05 sec
Memory: 756.35 MB
=============================================

========== NEW INCUMBENT SOLUTION ==========
{1: 736, 2: 498, 3: 540, 4: 778, 5: 380, 6: 142, 7: 708, 8: 470, 9: 380, 10: 142, 11: 708, 12: 470, 13: 142, 14: 380, 15: 708, 16: 470, 17: 142, 18: 380, 19: 170, 20: 408, 21: 142, 22: 380, 23: 100, 24: 338, 25: 142, 26: 380, 27: 708, 28: 470, 29: 380, 30: 142, 31: 778, 32: 540, 33: 170, 34: 408, 35: 338, 36: 100, 37: 470, 38: 708, 39: 86, 40: 324, 41: 470, 42: 708, 43: 16, 44: 254, 45: 792, 46: 554, 47: 338, 48: 100, 49: 30, 50: 268, 51: 498, 52: 736, 53: 44, 54: 282, 55: 254, 56: 16, 57: 380, 58: 142, 59: 268, 60: 30, 61: 254, 62: 16, 63: 240, 64: 478, 65: 478, 66: 240, 67: 708, 68: 470, 69: 778, 70: 540, 71: 666, 72: 428, 73: 114, 74: 352, 75: 142, 76: 380, 77: 554, 78: 792, 79: 100, 80: 338, 81: 708, 82: 470, 83: 680, 84: 442, 85: 268, 86: 30, 87: 708, 88: 470, 89: 142, 90: 380, 91: 380, 92: 142, 93: 554, 94: 792, 95: 470, 96: 708, 97: 114, 98: 352, 99: 254, 100: 16, 101: 100, 102: 338, 103: 86, 104: 324, 105: 72, 106: 310, 107: 708, 108: 470, 109: 114, 110: 352, 111: 478, 112: 240, 113: 778, 114: 540, 115: 778, 116: 540, 117: 736, 118: 498, 119: 478, 120: 240, 121: 408, 122: 170, 123: 708, 124: 470, 125: 338, 126: 100, 127: 708, 128: 470, 129: 240, 130: 478, 131: 554, 132: 792, 133: 470, 134: 708, 135: 142, 136: 380, 137: 708, 138: 470, 139: 30, 140: 268, 141: 240, 142: 478, 143: 100, 144: 338, 145: 470, 146: 708, 147: 142, 148: 380, 149: 30, 150: 268, 151: 16, 152: 254, 153: 736, 154: 498, 155: 708, 156: 470, 157: 470, 158: 708, 159: 44, 160: 282, 161: 338, 162: 100, 163: 16, 164: 254, 165: 708, 166: 470, 167: 470, 168: 708, 169: 708, 170: 470, 171: 366, 172: 128, 173: 380, 174: 142, 175: 338, 176: 100, 177: 554, 178: 792, 179: 254, 180: 16, 181: 142, 182: 380, 183: 268, 184: 30, 185: 240, 186: 478, 187: 72, 188: 310, 189: 254, 190: 16, 191: 554, 192: 792, 193: 708, 194: 470, 195: 170, 196: 408, 197: 366, 198: 128, 199: 380, 200: 142, 201: 554, 202: 792, 203: 792, 204: 554, 205: 142, 206: 380, 207: 142, 208: 380, 209: 778, 210: 540, 211: 380, 212: 142, 213: 100, 214: 338, 215: 114, 216: 352, 217: 16, 218: 254, 219: 652, 220: 414, 221: 470, 222: 708, 223: 380, 224: 142, 225: 470, 226: 708, 227: 694, 228: 456, 229: 86, 230: 324, 231: 100, 232: 338, 233: 30, 234: 268, 235: 428, 236: 666, 237: 100, 238: 338, 239: 652, 240: 414, 241: 380, 242: 142, 243: 540, 244: 778, 245: 708, 246: 470, 247: 240, 248: 478, 249: 470, 250: 708, 251: 540, 252: 778, 253: 240, 254: 478, 255: 16, 256: 254, 257: 30, 258: 268, 259: 30, 260: 268, 261: 296, 262: 58, 263: 30, 264: 268, 265: 240, 266: 478, 267: 792, 268: 554, 269: 142, 270: 380, 271: 30, 272: 268, 273: 170, 274: 408, 275: 540, 276: 778, 277: 30, 278: 268, 279: 338, 280: 100, 281: 554, 282: 792, 283: 540, 284: 778, 285: 142, 286: 380, 287: 408, 288: 170, 289: 456, 290: 694, 291: 470, 292: 708, 293: 142, 294: 380, 295: 142, 296: 380, 297: 708, 298: 470, 299: 16, 300: 254, 301: 792, 302: 554, 303: 778, 304: 540, 305: 470, 306: 708, 307: 554, 308: 792, 309: 16, 310: 254, 311: 324, 312: 86, 313: 142, 314: 380, 315: 478, 316: 240, 317: 554, 318: 792, 319: 408, 320: 170, 321: 16, 322: 254, 323: 470, 324: 708, 325: 282, 326: 44, 327: 142, 328: 380, 329: 86, 330: 324, 331: 652, 332: 414, 333: 478, 334: 240, 335: 792, 336: 554, 337: 352, 338: 114, 339: 540, 340: 778, 341: 666, 342: 428, 343: 380, 344: 142, 345: 540, 346: 778, 347: 100, 348: 338, 349: 338, 350: 100, 351: 708, 352: 470, 353: 240, 354: 478, 355: 100, 356: 338, 357: 792, 358: 554, 359: 456, 360: 694, 361: 30, 362: 268, 363: 708, 364: 470, 365: 512, 366: 750, 367: 680, 368: 442, 369: 254, 370: 16, 371: 142, 372: 380, 373: 268, 374: 30, 375: 114, 376: 352, 377: 540, 378: 778, 379: 554, 380: 792, 381: 380, 382: 142, 383: 380, 384: 142, 385: 470, 386: 708, 387: 380, 388: 142, 389: 44, 390: 282, 391: 708, 392: 470, 393: 142, 394: 380, 395: 792, 396: 554, 397: 792, 398: 554, 399: 408, 400: 170, 401: 58, 402: 296, 403: 540, 404: 778, 405: 380, 406: 142, 407: 554, 408: 792, 409: 352, 410: 114, 411: 540, 412: 778, 413: 16, 414: 254, 415: 470, 416: 708, 417: 380, 418: 142, 419: 736, 420: 498, 421: 142, 422: 380, 423: 470, 424: 708, 425: 708, 426: 470, 427: 72, 428: 310, 429: 114, 430: 352, 431: 30, 432: 268, 433: 338, 434: 100, 435: 792, 436: 554, 437: 708, 438: 470, 439: 380, 440: 142, 441: 170, 442: 408, 443: 470, 444: 708, 445: 380, 446: 142, 447: 170, 448: 408, 449: 792, 450: 554, 451: 666, 452: 428, 453: 408, 454: 170, 455: 380, 456: 142, 457: 778, 458: 540, 459: 380, 460: 142, 461: 470, 462: 708, 463: 282, 464: 44, 465: 708, 466: 470, 467: 338, 468: 100, 469: 142, 470: 380, 471: 708, 472: 470, 473: 142, 474: 380, 475: 268, 476: 30, 477: 58, 478: 296, 479: 296, 480: 58, 481: 540, 482: 778, 483: 114, 484: 352, 485: 142, 486: 380, 487: 750, 488: 512, 489: 170, 490: 408, 491: 142, 492: 380, 493: 380, 494: 142, 495: 44, 496: 282, 497: 338, 498: 100, 499: 778, 500: 540, 501: 736, 502: 498, 503: 680, 504: 442, 505: 792, 506: 554, 507: 708, 508: 470, 509: 540, 510: 778, 511: 708, 512: 470, 513: 554, 514: 792, 515: 380, 516: 142, 517: 142, 518: 380, 519: 478, 520: 240, 521: 352, 522: 114, 523: 142, 524: 380, 525: 408, 526: 170, 527: 254, 528: 16, 529: 170, 530: 408, 531: 170, 532: 408, 533: 666, 534: 428, 535: 470, 536: 708, 537: 170, 538: 408, 539: 114, 540: 352, 541: 338, 542: 100, 543: 86, 544: 324, 545: 338, 546: 100, 547: 708, 548: 470, 549: 554, 550: 792, 551: 380, 552: 142, 553: 750, 554: 512, 555: 478, 556: 240, 557: 44, 558: 282, 559: 736, 560: 498, 561: 470, 562: 708, 563: 58, 564: 296, 565: 338, 566: 100, 567: 470, 568: 708, 569: 470, 570: 708, 571: 554, 572: 792, 573: 240, 574: 478, 575: 408, 576: 170, 577: 338, 578: 100, 579: 128, 580: 366, 581: 470, 582: 708, 583: 414, 584: 652, 585: 470, 586: 708, 587: 792, 588: 554, 589: 58, 590: 296, 591: 554, 592: 792, 593: 142, 594: 380, 595: 470, 596: 708, 597: 408, 598: 170, 599: 114, 600: 352, 601: 30, 602: 268, 603: 366, 604: 128, 605: 268, 606: 30, 607: 380, 608: 142, 609: 142, 610: 380, 611: 58, 612: 296, 613: 240, 614: 478, 615: 708, 616: 470, 617: 554, 618: 792, 619: 16, 620: 254, 621: 100, 622: 338, 623: 778, 624: 540, 625: 498, 626: 736, 627: 792, 628: 554, 629: 652, 630: 414, 631: 338, 632: 100, 633: 540, 634: 778, 635: 470, 636: 708, 637: 30, 638: 268, 639: 324, 640: 86, 641: 652, 642: 414, 643: 100, 644: 338, 645: 142, 646: 380, 647: 100, 648: 338, 649: 254, 650: 16, 651: 268, 652: 30, 653: 652, 654: 414, 655: 442, 656: 680, 657: 16, 658: 254, 659: 554, 660: 792, 661: 44, 662: 282, 663: 456, 664: 694, 665: 100, 666: 338, 667: 380, 668: 142, 669: 114, 670: 352, 671: 792, 672: 554, 673: 478, 674: 240, 675: 554, 676: 792, 677: 100, 678: 338, 679: 142, 680: 380, 681: 708, 682: 470, 683: 792, 684: 554, 685: 708, 686: 470, 687: 100, 688: 338, 689: 268, 690: 30, 691: 44, 692: 282, 693: 708, 694: 470, 695: 736, 696: 498, 697: 156, 698: 394, 699: 792, 700: 554, 701: 44, 702: 282, 703: 778, 704: 540, 705: 58, 706: 296, 707: 778, 708: 540, 709: 540, 710: 778, 711: 750, 712: 512, 713: 100, 714: 338, 715: 72, 716: 310, 717: 708, 718: 470, 719: 540, 720: 778, 721: 72, 722: 310, 723: 86, 724: 324, 725: 708, 726: 470, 727: 114, 728: 352, 729: 554, 730: 792, 731: 366, 732: 128, 733: 128, 734: 366, 735: 540, 736: 778, 737: 736, 738: 498, 739: 16, 740: 254, 741: 680, 742: 442, 743: 470, 744: 708, 745: 16, 746: 254, 747: 156, 748: 394, 749: 338, 750: 100, 751: 540, 752: 778, 753: 100, 754: 338, 755: 324, 756: 86, 757: 100, 758: 338, 759: 498, 760: 736, 761: 470, 762: 708, 763: 554, 764: 792, 765: 540, 766: 778, 767: 540, 768: 778, 769: 16, 770: 254, 771: 30, 772: 268, 773: 778, 774: 540, 775: 86, 776: 324, 777: 338, 778: 100, 779: 58, 780: 296, 781: 282, 782: 44, 783: 666, 784: 428, 785: 254, 786: 16, 787: 470, 788: 708, 789: 30, 790: 268, 791: 694, 792: 456, 793: 778, 794: 540, 795: 750, 796: 512, 797: 652, 798: 414, 799: 736, 800: 498, 801: 268, 802: 30, 803: 498, 804: 736, 805: 792, 806: 554, 807: 708, 808: 470, 809: 58, 810: 296, 811: 792, 812: 554, 813: 128, 814: 366, 815: 792, 816: 554, 817: 512, 818: 750, 819: 540, 820: 778, 821: 338, 822: 100, 823: 16, 824: 254, 825: 470, 826: 708, 827: 254, 828: 16, 829: 16, 830: 254, 831: 30, 832: 268, 833: 86, 834: 324, 835: 114, 836: 352, 837: 652, 838: 414, 839: 16, 840: 254, 841: 366, 842: 128, 843: 100, 844: 338, 845: 750, 846: 512, 847: 792, 848: 554, 849: 666, 850: 428, 851: 16, 852: 254, 853: 792, 854: 554, 855: 44, 856: 282, 857: 86, 858: 324, 859: 736, 860: 498, 861: 792, 862: 554, 863: 792, 864: 554, 865: 156, 866: 394, 867: 652, 868: 414, 869: 554, 870: 792, 871: 456, 872: 694, 873: 30, 874: 268, 875: 254, 876: 16, 877: 708, 878: 470, 879: 142, 880: 380, 881: 16, 882: 254, 883: 666, 884: 428, 885: 352, 886: 114, 887: 156, 888: 394, 889: 792, 890: 554, 891: 86, 892: 324, 893: 652, 894: 414, 895: 30, 896: 268, 897: 100, 898: 338, 899: 72, 900: 310, 901: 554, 902: 792, 903: 554, 904: 792, 905: 498, 906: 736, 907: 792, 908: 554, 909: 100, 910: 338, 911: 268, 912: 30, 913: 428, 914: 666, 915: 652, 916: 414}
Number of labels used: 44
Total time: 455.06 sec
Memory: 756.37 MB
=============================================
[runlim] sample:		977.5 time, 460.3 real, 848.6 MB
[runlim] sample:		997.5 time, 470.3 real, 862.5 MB
[runlim] sample:		1017.5 time, 480.3 real, 864.0 MB
[runlim] sample:		1037.5 time, 490.3 real, 864.7 MB
[runlim] sample:		1057.5 time, 500.3 real, 874.6 MB
[runlim] sample:		1077.4 time, 510.3 real, 875.0 MB
[runlim] sample:		1097.4 time, 520.3 real, 875.1 MB
[runlim] sample:		1117.4 time, 530.3 real, 875.5 MB
[runlim] sample:		1137.4 time, 540.3 real, 875.6 MB
[runlim] sample:		1157.4 time, 550.3 real, 891.7 MB
[runlim] sample:		1177.4 time, 560.3 real, 891.9 MB
[runlim] sample:		1197.4 time, 570.3 real, 892.0 MB
[runlim] sample:		1217.4 time, 580.3 real, 892.1 MB
[runlim] sample:		1237.3 time, 590.3 real, 892.1 MB
[runlim] end:			Sat Jan 24 20:07:34 2026
[runlim] status:		out of time
[runlim] result:		2
[runlim] children:		0
[runlim] real:			600.12 seconds
[runlim] time:			1256.95 seconds
[runlim] space:			1443.0 MB
[runlim] samples:		5998
